95 92 37 44 14 38 86 16 91 100 98 93 
48 47 36 46 8 82 18 
27 69 30 20 9 35 34 29 77 
50 33 81 78 79 24 55 25 54 
21 75 39 23 67 56 4 26 
97 42 43 15 57 87 13 
94 99 96 6 59 85 61 17 60 89 
28 76 3 68 80 12 
83 45 84 5 
2 41 22 74 72 73 58 
62 11 64 49 19 7 52 
53 40 
88 10 70 1 
51 71 65 66 32 90 63 31 
